AES/1_4_4/ssaes_r1-20_c4_rw1_e4_f0_k1-20_aes_canon_box_aes_mc_bidirectional/ExperimentMinisat_r10_k2cnf_2011-11-18-115319/Result
WARNING: for repeatability, setting FPU to use double precision
============================[ Problem Statistics ]=============================
|                                                                             |
|  Number of variables:          1568                                         |
|  Number of clauses:            9234                                         |
|  Parse time:                   0.00 s                                       |
|  Eliminated clauses:           0.01 Mb                                      |
|  Simplification time:          0.01 s                                       |
|                                                                             |
=============================[ Search Statistics ]==============================
| Conflicts  |          ORIGINAL         |          LEARNT          | Progress |
|            |    Vars  Clauses Literals |    Limit  Clauses Lit/Cl |          |
================================================================================
|        100 |    1270     8398    26062 |     3079      100     31 |  4.593 % |
|        250 |    1270     8398    26062 |     3387      250     35 |  4.592 % |
|        475 |    1270     8398    26062 |     3725      475     32 |  4.592 % |
|        812 |    1270     8398    26062 |     4098      812     32 |  4.592 % |
|       1318 |    1270     8398    26062 |     4508     1318     30 |  4.592 % |
|       2077 |    1270     8398    26062 |     4959     2077     29 |  4.592 % |
|       3216 |    1270     8398    26062 |     5455     3216     30 |  4.592 % |
|       4924 |    1270     8398    26062 |     6000     4924     29 |  4.592 % |
|       7486 |    1270     8398    26062 |     6600     4425     24 |  4.592 % |
|      11330 |    1270     8398    26062 |     7260     4885     24 |  4.592 % |
|      17096 |    1270     8398    26062 |     7986     6932     24 |  4.592 % |
===============================================================================
restarts              : 89
conflicts             : 24093          (10337 /sec)
decisions             : 27271          (0.00 % random) (11701 /sec)
propagations          : 14388435       (6173585 /sec)
conflict literals     : 671694         (56.73 % deleted)
Memory used           : 9.00 MB
CPU time              : 2.33065 s

SATISFIABLE
